p cnf 140 500
4 2 0
4 -3 0
-2 3 -4 0
-5 6 -7 0
5 -6 -7 0
-5 -6 7 0
5 6 7 0
-8 4 0
-8 -7 0
-4 7 8 0
-10 -3 0
-10 9 0
3 -9 10 0
8 10 -11 0
-8 -10 -11 0
8 -10 11 0
-8 10 11 0
-13 -4 0
-13 12 0
4 -12 13 0
-14 -15 -16 0
14 15 -16 0
-14 15 16 0
14 -15 16 0
-17 13 0
-17 -16 0
-13 16 17 0
18 7 0
18 -17 0
-7 17 -18 0
11 18 -19 0
-11 -18 -19 0
11 -18 19 0
-11 18 19 0
-1 19 -20 0
1 -19 -20 0
-1 -19 20 0
1 19 20 0
5 -21 0
-5 -21 0
8 -21 -22 0
-8 21 -22 0
8 21 22 0
-8 -21 22 0
-23 9 0
-23 -1 0
-9 1 23 0
-24 -14 0
-24 12 0
14 -12 24 0
25 23 0
25 -24 0
-23 24 -25 0
-26 25 0
-26 14 0
-25 -14 26 0
27 -15 0
27 16 0
15 -16 -27 0
-28 27 0
-28 -5 0
-27 5 28 0
29 26 0
29 28 0
-26 -28 -29 0
1 30 -31 0
-1 -30 -31 0
1 -30 31 0
-1 30 31 0
-33 32 0
-33 -3 0
-32 3 33 0
31 33 -34 0
-31 -33 -34 0
31 -33 34 0
-31 33 34 0
-35 29 0
-35 -34 0
-29 34 35 0
36 22 0
36 -35 0
-22 35 -36 0
-37 -9 0
-37 5 0
9 -5 37 0
-38 36 0
-38 37 0
-36 -37 38 0
-6 31 -39 0
6 -31 -39 0
-6 -31 39 0
6 31 39 0
-40 -10 0
-40 39 0
10 -39 40 0
-41 -25 0
-41 40 0
25 -40 41 0
-6 -41 -42 0
6 41 -42 0
-6 41 42 0
6 -41 42 0
-43 -42 0
-43 6 0
42 -6 43 0
44 9 0
44 -43 0
-9 43 -44 0
46 15 0
46 45 0
-15 -45 -46 0
48 47 0
48 14 0
-47 -14 -48 0
-12 -15 -49 0
12 15 -49 0
-12 15 49 0
12 -15 49 0
50 -48 0
50 -49 0
48 49 -50 0
-51 46 0
-51 -50 0
-46 50 51 0
8 -24 -52 0
-8 24 -52 0
8 24 52 0
-8 -24 52 0
-53 -52 0
-53 2 0
52 -2 53 0
51 53 -54 0
-51 -53 -54 0
51 -53 54 0
-51 53 54 0
55 44 0
55 -54 0
-44 54 -55 0
-56 24 0
-56 30 0
-24 -30 56 0
57 -49 0
57 30 0
49 -30 -57 0
57 3 -58 0
-57 -3 -58 0
57 -3 58 0
-57 3 58 0
-59 58 0
-59 -25 0
-58 25 59 0
60 -56 0
60 59 0
56 -59 -60 0
14 -1 -61 0
-14 1 -61 0
14 1 61 0
-14 -1 61 0
13 -46 -62 0
-13 46 -62 0
13 46 62 0
-13 -46 62 0
39 -62 -63 0
-39 62 -63 0
39 62 63 0
-39 -62 63 0
-64 -61 0
-64 -63 0
61 63 64 0
-65 -32 0
-65 -4 0
32 4 65 0
66 -40 0
66 -15 0
40 15 -66 0
7 -49 -67 0
-7 49 -67 0
7 49 67 0
-7 -49 67 0
-68 -66 0
-68 -67 0
66 67 68 0
-69 65 0
-69 -68 0
-65 68 69 0
-70 5 0
-70 17 0
-5 -17 70 0
69 -70 -71 0
-69 70 -71 0
69 70 71 0
-69 -70 71 0
2 45 -72 0
-2 -45 -72 0
2 -45 72 0
-2 45 72 0
-73 -72 0
-73 -65 0
72 65 73 0
-74 -71 0
-74 73 0
71 -73 74 0
-75 -64 0
-75 74 0
64 -74 75 0
76 -60 0
76 75 0
60 -75 -76 0
-55 -76 -77 0
55 76 -77 0
-55 76 77 0
55 -76 77 0
-78 -38 0
-78 -77 0
38 77 78 0
9 -33 -79 0
-9 33 -79 0
9 33 79 0
-9 -33 79 0
80 -48 0
80 79 0
48 -79 -80 0
-49 -65 -81 0
49 65 -81 0
-49 65 81 0
49 -65 81 0
-82 -81 0
-82 28 0
81 -28 82 0
-83 -80 0
-83 -82 0
80 82 83 0
84 21 0
84 25 0
-21 -25 -84 0
-83 84 -85 0
83 -84 -85 0
-83 -84 85 0
83 84 85 0
86 32 0
86 -30 0
-32 30 -86 0
87 85 0
87 -86 0
-85 86 -87 0
-88 7 0
-88 50 0
-7 -50 88 0
-89 -88 0
-89 48 0
88 -48 89 0
-41 -6 -90 0
41 6 -90 0
-41 6 90 0
41 -6 90 0
90 39 -91 0
-90 -39 -91 0
90 -39 91 0
-90 39 91 0
92 62 0
92 91 0
-62 -91 -92 0
89 -92 -93 0
-89 92 -93 0
89 92 93 0
-89 -92 93 0
94 -87 0
94 -93 0
87 93 -94 0
78 94 -95 0
-78 -94 -95 0
78 -94 95 0
-78 94 95 0
96 -20 0
96 -95 0
20 95 -96 0
-98 -1 0
-98 3 0
1 -3 98 0
99 -97 0
99 -98 0
97 98 -99 0
100 -42 0
100 5 0
42 -5 -100 0
101 -62 0
101 -88 0
62 88 -101 0
102 -62 0
102 -67 0
62 67 -102 0
-103 102 0
-103 62 0
-102 -62 103 0
104 -103 0
104 32 0
103 -32 -104 0
101 104 -105 0
-101 -104 -105 0
101 -104 105 0
-101 104 105 0
-100 -105 -106 0
100 105 -106 0
-100 105 106 0
100 -105 106 0
107 41 0
107 49 0
-41 -49 -107 0
108 -106 0
108 107 0
106 -107 -108 0
-109 99 0
-109 108 0
-99 -108 109 0
-110 96 0
-110 -109 0
-96 109 110 0
-111 65 0
-111 41 0
-65 -41 111 0
46 62 -112 0
-46 -62 -112 0
46 -62 112 0
-46 62 112 0
-113 98 0
-113 -112 0
-98 112 113 0
111 -113 -114 0
-111 113 -114 0
111 113 114 0
-111 -113 114 0
-18 -21 -115 0
18 21 -115 0
-18 21 115 0
18 -21 115 0
-116 3 0
-116 23 0
-3 -23 116 0
-117 -115 0
-117 -116 0
115 116 117 0
-114 117 -118 0
114 -117 -118 0
-114 -117 118 0
114 117 118 0
110 -118 -119 0
-110 118 -119 0
110 118 119 0
-110 -118 119 0
-39 -13 -120 0
39 13 -120 0
-39 13 120 0
39 -13 120 0
-121 -27 0
-121 58 0
27 -58 121 0
122 7 0
122 -65 0
-7 65 -122 0
123 -121 0
123 122 0
121 -122 -123 0
-17 -46 -124 0
17 46 -124 0
-17 46 124 0
17 -46 124 0
-125 2 0
-125 5 0
-2 -5 125 0
126 125 0
126 -90 0
-125 90 -126 0
-127 125 0
-127 -125 0
126 127 -128 0
-126 -127 -128 0
126 -127 128 0
-126 127 128 0
129 -124 0
129 -128 0
124 128 -129 0
130 123 0
130 -129 0
-123 129 -130 0
-131 46 0
-131 -68 0
-46 68 131 0
-132 48 0
-132 -30 0
-48 30 132 0
133 131 0
133 132 0
-131 -132 -133 0
134 -62 0
134 49 0
62 -49 -134 0
-135 134 0
-135 122 0
-134 -122 135 0
-8 135 -136 0
8 -135 -136 0
-8 -135 136 0
8 135 136 0
-137 133 0
-137 -136 0
-133 136 137 0
138 130 0
138 -137 0
-130 137 -138 0
139 -120 0
139 138 0
120 -138 -139 0
119 -139 -140 0
-119 139 -140 0
119 139 140 0
-119 -139 140 0
121 107 -65 116 104 0
-22 23 77 4 0
-48 -137 -14 0
-111 -99 51 58 -113 137 0
-140 -113 29 0
104 83 -132 58 -41 6 0
-30 6 0
-14 -56 88 112 6 -94 0
-138 121 -107 43 0
-122 84 66 -106 -118 0
121 136 -125 -115 113 0
130 -66 0
58 -116 27 52 0
3 63 0
64 -17 34 102 86 123 0
-126 -122 -30 0
94 28 -31 0
92 122 -56 61 70 0
-61 -69 14 -49 0
-110 47 -52 65 134 0
28 110 -100 0
18 22 -62 15 -136 0
22 30 48 0
55 -42 -58 -78 -106 0
-104 14 0
-117 81 71 -29 113 0
12 65 -68 76 -91 0
9 140 -3 -102 0
-111 -83 43 -128 0
-13 -35 -122 -110 0
19 8 -62 77 -116 0
40 -36 -114 125 42 0
53 -8 110 12 -93 90 0
45 -75 -59 91 -69 -137 0
74 78 24 0
97 -135 19 0
11 19 2 0
-20 -26 2 -102 103 0
-49 -112 0
76 -111 66 -18 0
92 -102 8 121 -132 0
-28 -90 0
74 -16 55 18 80 0
-63 -11 -49 79 24 0
-30 -87 0
122 85 47 -30 98 13 0
-37 21 132 112 -67 0
-65 -18 -61 117 0
6 20 0
127 51 117 -109 -12 -6 0
93 53 0
-104 -76 0
19 -116 94 15 0
18 119 -2 111 -97 0
9 57 101 37 -122 6 0
-86 -45 69 26 0
55 -112 103 -124 -46 0
-72 57 34 15 0
7 136 63 130 0
-22 -104 132 0
21 90 88 0
11 109 125 0
39 -130 5 0
-12 11 103 0
-13 -121 0
-33 -76 70 0
-66 67 -120 0
-78 74 4 0
69 135 -22 139 0
65 29 0
-118 86 -132 -126 -48 108 0
15 -51 0
-63 -38 30 119 0
-118 61 -25 -93 0
-27 3 -2 -69 49 0
99 -16 -1 46 0
-33 80 0
-82 30 78 -89 -112 -105 0
-75 -117 -42 -41 70 0
-36 129 2 92 -30 0
81 -44 0
94 53 33 0
42 -100 -24 -4 0
140 0
